NAME          ClpDefau
ROWS
 N  OBJROW
 L  R_120_0
 L  R_120_1
 L  R_120_2
 L  R_120_3
 L  R_120_4
 L  R_120_5
 L  R_120_6
 L  R_120_7
 L  R_120_8
 L  R_120_9
 L  R_120_10
 L  R_120_11
 L  R_120_12
 L  R_120_13
 L  R_120_14
 L  R_120_15
COLUMNS
    x_0       OBJROW     -8.           R_120_1   93.         
    x_0       R_120_3   48.            R_120_4   57.         
    x_0       R_120_5   5.             R_120_7   41.         
    x_0       R_120_9   68.            R_120_10  23.         
    x_0       R_120_11  4.             R_120_12  23.         
    x_0       R_120_13  66.            R_120_14  66.         
    x_0       R_120_15  24.         
    x_1       OBJROW     -12.          R_120_1   54.         
    x_1       R_120_2   98.            R_120_3   76.         
    x_1       R_120_4   58.            R_120_5   97.         
    x_1       R_120_6   95.            R_120_7   68.         
    x_1       R_120_8   36.            R_120_10  46.         
    x_1       R_120_11  59.            R_120_13  73.         
    x_1       R_120_14  72.            R_120_15  63.         
    x_2       OBJROW     -11.          R_120_0   42.         
    x_2       R_120_4   99.            R_120_6   91.         
    x_2       R_120_8   65.            R_120_9   76.         
    x_2       R_120_10  94.            R_120_11  66.         
    x_2       R_120_12  88.            R_120_13  10.         
    x_2       R_120_14  44.            R_120_15  25.         
    x_3       OBJROW     -47.          R_120_1   74.         
    x_3       R_120_2   35.            R_120_3   88.         
    x_3       R_120_5   67.            R_120_6   35.         
    x_3       R_120_7   27.            R_120_9   92.         
    x_3       R_120_10  8.             R_120_11  23.         
    x_3       R_120_12  4.             R_120_13  9.          
    x_3       R_120_14  94.         
    x_4       OBJROW     -22.          R_120_0   17.         
    x_4       R_120_2   24.            R_120_3   1.          
    x_4       R_120_4   6.             R_120_5   32.         
    x_4       R_120_6   5.             R_120_7   79.         
    x_4       R_120_8   96.            R_120_9   44.         
    x_4       R_120_10  40.            R_120_11  99.         
    x_4       R_120_12  6.             R_120_14  80.         
    x_4       R_120_15  61.         
    x_5       OBJROW     -95.          R_120_1   88.         
    x_5       R_120_2   14.            R_120_3   17.         
    x_5       R_120_4   100.           R_120_5   66.         
    x_5       R_120_6   44.            R_120_7   78.         
    x_5       R_120_9   90.            R_120_10  18.         
    x_5       R_120_11  33.            R_120_12  21.         
    x_5       R_120_13  59.            R_120_14  66.         
    x_6       OBJROW     -86.          R_120_0   5.          
    x_6       R_120_2   57.            R_120_3   11.         
    x_6       R_120_4   80.            R_120_5   80.         
    x_6       R_120_6   33.            R_120_7   36.         
    x_6       R_120_8   1.             R_120_9   50.         
    x_6       R_120_10  15.            R_120_11  12.         
    x_6       R_120_12  13.            R_120_13  97.         
    x_6       R_120_14  28.            R_120_15  86.         
    x_7       OBJROW     -40.          R_120_0   40.         
    x_7       R_120_1   49.            R_120_2   98.         
    x_7       R_120_4   56.            R_120_5   3.          
    x_7       R_120_6   7.             R_120_9   13.         
    x_7       R_120_10  62.            R_120_11  67.         
    x_7       R_120_13  47.            R_120_14  48.         
    x_7       R_120_15  88.         
    x_8       OBJROW     -33.          R_120_0   14.         
    x_8       R_120_1   100.           R_120_2   3.          
    x_8       R_120_4   82.            R_120_5   27.         
    x_8       R_120_7   1.             R_120_8   48.         
    x_8       R_120_9   93.            R_120_10  97.         
    x_8       R_120_11  15.            R_120_12  51.         
    x_8       R_120_13  18.            R_120_14  51.         
    x_9       OBJROW     -78.          R_120_0   16.         
    x_9       R_120_1   43.            R_120_2   28.         
    x_9       R_120_3   4.             R_120_4   61.         
    x_9       R_120_5   93.            R_120_6   38.         
    x_9       R_120_7   59.            R_120_8   48.         
    x_9       R_120_9   68.            R_120_11  94.         
    x_9       R_120_15  30.         
    x_10      OBJROW     -28.          R_120_0   77.         
    x_10      R_120_1   55.            R_120_2   90.         
    x_10      R_120_4   74.            R_120_5   46.         
    x_10      R_120_6   70.            R_120_7   54.         
    x_10      R_120_9   88.            R_120_11  17.         
    x_10      R_120_13  91.            R_120_14  88.         
    x_10      R_120_15  23.         
    x_11      OBJROW     -78.          R_120_0   15.         
    x_11      R_120_1   97.            R_120_2   43.         
    x_11      R_120_3   92.            R_120_4   22.         
    x_11      R_120_6   91.            R_120_7   46.         
    x_11      R_120_8   74.            R_120_9   60.         
    x_11      R_120_10  4.             R_120_12  95.         
    x_11      R_120_13  66.            R_120_14  36.         
    x_11      R_120_15  91.         
    x_12      OBJROW     -5.           R_120_0   53.         
    x_12      R_120_1   61.            R_120_2   71.         
    x_12      R_120_3   96.            R_120_5   93.         
    x_12      R_120_6   80.            R_120_7   86.         
    x_12      R_120_8   82.            R_120_10  68.         
    x_12      R_120_11  60.            R_120_12  13.         
    x_12      R_120_13  28.            R_120_14  78.         
    x_12      R_120_15  28.         
    x_13      OBJROW     -75.          R_120_1   72.         
    x_13      R_120_2   26.            R_120_3   76.         
    x_13      R_120_4   63.            R_120_6   79.         
    x_13      R_120_7   62.            R_120_8   73.         
    x_13      R_120_9   92.            R_120_10  98.         
    x_13      R_120_11  1.             R_120_13  86.         
    x_13      R_120_14  97.            R_120_15  87.         
    x_14      OBJROW     -88.          R_120_1   65.         
    x_14      R_120_2   11.            R_120_3   45.         
    x_14      R_120_4   97.            R_120_7   81.         
    x_14      R_120_8   93.            R_120_9   21.         
    x_14      R_120_10  60.            R_120_11  20.         
    x_14      R_120_12  72.            R_120_13  1.          
    x_14      R_120_14  69.         
    x_15      OBJROW     -21.          R_120_0   27.         
    x_15      R_120_2   84.            R_120_3   89.         
    x_15      R_120_4   39.            R_120_5   41.         
    x_15      R_120_6   83.            R_120_8   83.         
    x_15      R_120_9   12.            R_120_10  27.         
    x_15      R_120_11  68.            R_120_13  65.         
    x_15      R_120_14  40.            R_120_15  59.         
RHS
    RHS       R_120_0   734.           R_120_1   397.        
    RHS       R_120_2   695.           R_120_3   444.        
    RHS       R_120_4   222.           R_120_5   274.        
    RHS       R_120_6   274.           R_120_7   851.        
    RHS       R_120_8   548.           R_120_9   533.        
    RHS       R_120_10  378.           R_120_11  486.        
    RHS       R_120_12  524.           R_120_13  239.        
    RHS       R_120_14  502.           R_120_15  628.        
BOUNDS
 UI BOUND     x_0       100.        
 UI BOUND     x_1       100.        
 UI BOUND     x_2       100.        
 UI BOUND     x_3       100.        
 UI BOUND     x_4       100.        
 UI BOUND     x_5       100.        
 UI BOUND     x_6       100.        
 UI BOUND     x_7       100.        
 UI BOUND     x_8       100.        
 UI BOUND     x_9       100.        
 UI BOUND     x_10      100.        
 UI BOUND     x_11      100.        
 UI BOUND     x_12      100.        
 UI BOUND     x_13      100.        
 UI BOUND     x_14      100.        
 UI BOUND     x_15      100.        
ENDATA
